============================[ Problem Statistics ]=============================
|                                                                             |
|  Number of variables:         25126                                         |
|  Number of clauses:           67690                                         |
|  Parse time:                   0.05 s                                       |
|  Eliminated clauses:           0.26 Mb                                      |
|  Simplification time:          0.05 s                                       |
|                                                                             |
============================[ Search Statistics ]==============================
| Conflicts |          ORIGINAL         |          LEARNT          | Progress |
|           |    Vars  Clauses Literals |    Limit  Clauses Lit/Cl |          |
===============================================================================
|       100 |     197      815     2558 |      298      100      9 | 49.944 % |
|       250 |     197      815     2558 |      328      250      8 | 49.944 % |
|       475 |     197      815     2558 |      361      475      8 | 49.944 % |
===============================================================================
restarts              : 6
conflicts             : 685            (6784 /sec)
decisions             : 2112           (0.00 % random) (20918 /sec)
propagations          : 34823          (344898 /sec)
conflict literals     : 5141           (25.07 % deleted)
Memory used           : 8.15 MB
CPU time              : 0.100966 s

UNSATISFIABLE
